c ren 1 -> 1
c ren 2 -> 2
c ren 3 -> 3
c ren 4 -> 4
c ren 5 -> 5
c ren 6 -> 6
c ren 7 -> 7
c ren 8 -> 8
c ren 9 -> 9
c ren 10 -> 10
c ren 11 -> 11
c ren 12 -> 12
c ren 13 -> 13
c ren 14 -> 14
c ren 15 -> 15
c ren 16 -> 16
c ren 17 -> 17
c ren 18 -> 18
c ren 19 -> 19
c ren 20 -> 20
c ren 21 -> 21
c ren 22 -> 22
c ren 23 -> 23
c ren 24 -> 24
c ren 25 -> 25
c ren 26 -> 26
c ren 27 -> 27
c ren 28 -> 28
c ren 29 -> 29
c ren 30 -> 30
c ren 31 -> 31
c ren 32 -> 32
c ren 54 -> 33
c ren 58 -> 34
c ren 84 -> 35
c ren 88 -> 36
c ren 118 -> 37
c ren 129 -> 38
c ren 139 -> 39
c ren 157 -> 40
c ren 162 -> 41
c ren 166 -> 42
c ren 168 -> 43
c ren 169 -> 44
c ren 170 -> 45
c ren 171 -> 46
c ren 172 -> 47
c ren 173 -> 48
c ren 174 -> 49
c ren 175 -> 50
c ren 176 -> 51
c ren 177 -> 52
c ren 178 -> 53
c ren 179 -> 54
c ren 180 -> 55
c ren 181 -> 56
c ren 182 -> 57
c ren 183 -> 58
c ren 184 -> 59
c ren 185 -> 60
c ren 186 -> 61
c ren 187 -> 62
c ren 188 -> 63
c ren 189 -> 64
c ren 190 -> 65
c ren 191 -> 66
c ren 192 -> 67
c ren 193 -> 68
c ren 194 -> 69
c ren 195 -> 70
c ren 196 -> 71
c ren 197 -> 72
c ren 198 -> 73
c ren 199 -> 74
c ren 200 -> 75
c ren 201 -> 76
c ren 202 -> 77
c ren 203 -> 78
c ren 204 -> 79
c ren 205 -> 80
c ren 206 -> 81
c ren 207 -> 82
c ren 208 -> 83
c ren 209 -> 84
c ren 210 -> 85
c ren 211 -> 86
c ren 212 -> 87
c ren 213 -> 88
c ren 229 -> 89
c ren 314 -> 90
c ren 315 -> 91
c ren 316 -> 92
c ren 317 -> 93
c ren 318 -> 94
c ren 319 -> 95
c ren 320 -> 96
c ren 321 -> 97
c ren 322 -> 98
c ren 323 -> 99
c ren 324 -> 100
c ren 325 -> 101
c ren 326 -> 102
c ren 327 -> 103
c ren 328 -> 104
c ren 329 -> 105
c ren 330 -> 106
c ren 331 -> 107
c ren 332 -> 108
c ren 333 -> 109
c ren 334 -> 110
c ren 335 -> 111
c ren 336 -> 112
c ren 337 -> 113
c ren 338 -> 114
c ren 339 -> 115
c ren 340 -> 116
c ren 341 -> 117
c ren 342 -> 118
c ren 343 -> 119
c ren 344 -> 120
c ren 345 -> 121
c ren 346 -> 122
c ren 347 -> 123
p cnf 123 441
a 1 2 3 4 5 6 7 8 9 10 11 12 13 14 15 16 17 18 19 20 21 22 23 24 25 26 27 28 29 30 31 32 55 56 57 58 59 60 61 62 63 64 65 66 67 68 69 70 71 72 73 74 75 76 77 78 79 80 81 82 83 84 85 86 87 88 0
d 43 73 74 75 76 77 78 79 80 0
d 44 73 74 75 76 77 78 79 80 0
d 45 55 56 57 58 59 60 61 62 0
d 46 55 56 57 58 59 60 61 62 0
d 47 55 56 57 58 59 60 61 62 0
d 48 55 56 57 58 59 60 61 62 0
d 49 63 64 0
d 50 65 66 67 68 69 70 71 72 0
d 51 65 66 67 68 69 70 71 72 0
d 52 81 82 83 84 85 86 87 88 0
d 53 81 82 83 84 85 86 87 88 0
d 54 81 82 83 84 85 86 87 88 0
e 33 34 35 36 37 38 39 40 41 42 89 90 91 92 93 94 95 96 97 98 99 100 101 102 103 104 105 106 107 108 109 110 111 112 113 114 115 116 117 118 119 120 121 122 123 0
9 10 -27 -28 -33 0
11 -27 -73 -109 0
3 -19 -42 0
3 4 -17 -18 37 -41 0
9 -25 -33 0
3 -17 -18 -19 40 0
-11 27 77 -113 0
-10 -12 25 27 28 33 0
10 -26 -34 0
9 11 -26 -28 -33 0
-1 -2 3 -4 -17 -18 19 -20 37 0
-1 -2 -4 19 20 -40 0
9 11 12 -26 -33 0
9 -10 11 -12 25 -26 27 -28 34 0
9 -10 11 12 25 -26 27 28 34 0
9 10 -11 -12 25 26 -27 -28 34 0
9 -25 -34 0
-9 -12 26 27 28 33 0
9 -25 -75 -111 0
9 -26 -27 -28 -33 0
12 -76 -112 0
-12 28 -80 -116 0
-10 26 -34 0
-9 25 33 0
-9 25 -75 -111 0
-11 -12 25 26 28 33 0
9 -79 -115 0
9 10 11 12 -33 0
9 10 -26 -33 0
10 11 -25 -28 -33 0
-10 -11 -12 25 28 33 0
9 10 11 -28 -33 0
-9 25 79 -115 0
9 -10 -11 -12 25 -26 -27 -28 34 0
9 25 75 -111 0
-25 -26 -27 -28 -33 0
9 -10 -11 12 25 -26 -27 28 34 0
-28 -76 -112 0
12 -28 -34 0
1 -17 -42 0
-5 -6 -7 -8 24 35 0
9 12 -26 -27 -33 0
2 3 4 -17 37 -41 0
-26 -78 -114 0
9 10 11 -27 -33 0
-10 26 78 -114 0
11 -27 -34 0
33 35 -38 -40 -41 0
34 -42 0
-9 10 11 12 -25 26 27 28 34 0
10 11 -25 -27 -33 0
-16 30 31 32 -34 -36 -37 38 41 0
-5 6 -7 -8 -21 22 -23 -24 36 0
2 4 -17 -19 37 -41 0
-9 -10 -11 -12 28 33 0
10 11 12 -25 -33 0
10 -25 -27 -28 -33 0
-5 -7 22 23 35 0
5 -6 -7 8 21 -22 -23 24 36 0
7 -23 -36 0
5 6 8 -23 -35 0
37 -42 0
5 7 -22 -24 -35 0
5 -6 -7 -8 21 -22 -23 -24 36 0
5 7 8 -22 -35 0
-6 -8 21 23 24 35 0
6 -22 -36 0
5 -22 -47 -89 0
2 3 -17 -20 37 -41 0
5 -6 7 -8 21 -22 23 -24 36 0
5 -6 7 8 21 -22 23 24 36 0
5 7 -22 -24 -89 0
5 6 7 -8 21 22 23 -24 36 0
5 -21 -36 0
6 -21 -47 -89 0
-1 -2 18 -40 0
-1 2 -3 -4 -17 18 -19 -20 37 0
1 2 -19 -20 40 0
-7 21 22 23 35 0
-8 21 22 23 24 35 0
6 7 -21 -46 -89 0
5 6 -23 -24 -35 0
-8 24 -36 0
-1 -2 -3 19 -40 0
5 6 -23 -46 -89 0
-7 23 -36 0
5 6 7 -24 -89 0
-6 22 -36 0
5 -22 -23 -24 -35 0
-5 21 35 0
-1 -3 18 19 -40 0
6 7 -21 -24 -89 0
-7 -8 21 22 24 35 0
5 6 -7 -8 21 22 -23 -24 36 0
5 8 -22 -23 -35 0
5 6 7 8 -35 0
5 6 7 8 -89 0
5 6 7 -46 -89 0
5 6 -22 -35 0
-6 -7 21 23 35 0
5 7 -22 -46 -89 0
5 8 -22 -23 -89 0
5 6 -47 -89 0
-5 21 89 0
5 -22 -23 -24 -89 0
7 -21 -22 -23 -35 0
-21 -22 -23 -24 -35 0
-6 21 22 35 0
5 -22 -23 -46 -89 0
8 -24 -36 0
6 7 8 -21 -89 0
-1 -3 -4 18 20 -40 0
-1 2 -3 4 -17 18 -19 20 37 0
4 -17 -18 -19 40 0
5 7 8 -22 -89 0
5 6 8 -23 -89 0
6 -21 -23 -46 -89 0
6 -21 -23 -24 -89 0
-7 23 47 48 89 0
-6 22 48 89 0
5 -48 -89 0
-8 24 46 47 48 89 0
-14 15 -16 -30 31 -32 33 -34 35 -36 -37 38 -39 -40 42 0
36 -42 0
-5 -6 22 35 0
6 7 8 -21 -35 0
35 36 -40 -41 0
14 15 -31 33 35 -39 -40 -41 0
-5 6 -7 8 -21 22 -23 24 36 0
6 7 -21 -24 -35 0
6 7 -21 -23 -35 0
14 15 -32 33 35 -39 -40 -41 0
1 2 3 4 37 -41 0
3 -19 -65 -101 0
-1 -2 -3 -4 20 -40 0
-1 -2 -3 4 -17 -18 -19 20 37 0
-1 17 -67 -103 0
-1 -2 -3 -4 -17 -18 -19 -20 37 0
-3 19 69 -105 0
-2 -3 17 19 -40 0
1 3 4 -18 37 -41 0
2 -18 -37 0
-2 18 70 -106 0
1 2 -3 -4 17 18 -19 -20 37 0
1 -17 -37 0
1 -17 -67 -103 0
1 -18 -19 -20 37 -41 0
4 -68 -104 0
-4 20 -72 -108 0
-2 18 -37 0
-1 17 -40 0
-3 -4 17 18 20 -40 0
-3 -19 65 -101 0
1 2 4 -19 37 -41 0
-2 18 -66 -102 0
1 4 -18 -19 37 -41 0
-2 17 18 -40 0
-3 19 -37 0
1 2 -18 40 0
-2 -3 -4 17 20 -40 0
-19 -69 -105 0
-18 -70 -106 0
3 -19 -37 0
1 2 3 -19 -41 0
4 -20 -37 0
3 -17 -18 -20 37 -41 0
1 2 -3 4 17 18 -19 20 37 0
1 -2 -3 -4 17 -18 -19 -20 37 0
3 4 -17 -18 40 0
1 2 3 -19 40 0
1 3 -18 -20 40 0
1 -17 -41 0
-20 -68 -104 0
2 -18 -42 0
-14 -16 31 32 -34 -36 -37 38 41 0
-17 -71 -107 0
-1 2 3 -4 -17 18 19 -20 37 0
-1 -4 18 19 20 -40 0
-14 -15 -16 32 -34 -36 -37 38 41 0
-14 -15 31 -34 -36 -37 38 41 0
1 2 4 -19 40 0
15 -31 -81 -117 0
42 43 44 -45 50 51 52 89 -90 0
1 3 -18 -20 37 -41 0
41 50 -89 -90 0
-34 -36 -37 39 41 0
-15 31 -42 0
-41 44 51 -54 89 -90 0
-9 -10 -11 -12 -25 -26 -27 -28 34 0
14 -30 88 90 91 92 93 94 95 96 97 98 99 100 101 102 103 104 105 106 107 108 109 110 111 112 113 114 115 116 117 118 119 120 121 122 123 0
-14 30 86 -122 0
-13 -38 0
29 -38 0
1 2 -18 -41 0
41 50 -51 -90 0
-13 29 -39 0
7 -21 -22 -46 -89 0
-14 30 88 90 91 92 93 94 95 96 97 98 99 100 101 102 103 104 105 106 107 108 109 110 111 112 113 114 115 116 117 118 119 120 121 122 123 0
13 39 0
-29 39 0
39 88 90 91 92 93 94 95 96 97 98 99 100 101 102 103 104 105 106 107 108 109 110 111 112 113 114 115 116 117 118 119 120 121 122 123 0
11 -25 -26 -28 -33 0
-14 -15 16 -30 -31 32 33 -34 35 -36 -37 38 -39 -40 42 0
-5 -8 22 23 24 35 0
14 15 16 30 31 -32 38 -39 -88 90 91 92 93 94 95 96 97 98 99 100 101 102 103 104 105 106 107 108 109 110 111 112 113 114 115 116 117 118 119 120 121 122 123 0
-16 32 -42 0
12 -25 -26 -27 -33 0
-5 -7 -8 22 24 35 0
-14 -30 82 -118 0
-15 31 88 90 91 92 93 94 95 96 97 98 99 100 101 102 103 104 105 106 107 108 109 110 111 112 113 114 115 116 117 118 119 120 121 122 123 0
-5 -6 -7 23 35 0
39 -83 -119 0
-9 -10 -12 27 28 33 0
-9 10 -11 12 -25 26 -27 28 34 0
14 15 -31 -42 0
10 -25 -26 -33 0
-15 -31 81 -117 0
14 -31 -32 33 35 -39 -40 -41 0
7 -21 -22 -24 -35 0
-9 -10 11 -12 -25 -26 27 -28 34 0
39 -42 0
6 -21 -22 -35 0
-5 6 7 8 -21 22 23 24 36 0
-16 88 90 91 92 93 94 95 96 97 98 99 100 101 102 103 104 105 106 107 108 109 110 111 112 113 114 115 116 117 118 119 120 121 122 123 0
-15 31 85 -121 0
-31 -85 -121 0
16 -84 -120 0
-9 -10 11 12 -25 -26 27 28 34 0
-14 30 -82 -118 0
14 15 16 -32 -42 0
6 -21 -23 -24 -35 0
-5 -6 -8 23 24 35 0
-30 -31 -32 33 35 -39 -40 -41 0
-4 -20 72 -108 0
-14 15 16 -30 31 32 33 -34 35 -36 -37 38 -39 -40 42 0
-1 17 71 -107 0
1 2 3 4 17 18 19 20 37 0
-1 2 3 4 -17 18 19 20 37 0
-5 -6 7 8 -21 -22 23 24 36 0
-14 30 -34 -36 -37 38 41 0
14 16 -31 33 35 -39 -40 -41 0
7 8 -21 -22 -89 0
16 -30 -31 33 35 -39 -40 -41 0
-14 -15 -16 -30 -31 -32 33 -34 35 -36 -37 38 -39 -40 42 0
-30 -86 -122 0
14 15 16 33 35 -39 -40 -41 0
-21 -22 -23 -46 -89 0
14 -86 -122 0
40 41 0
-15 -16 30 32 -34 -36 -37 38 41 0
-5 -6 7 -8 -21 -22 23 -24 36 0
8 -21 -22 -23 -35 0
-9 -11 26 27 33 0
7 8 -21 -22 -35 0
15 -31 88 90 91 92 93 94 95 96 97 98 99 100 101 102 103 104 105 106 107 108 109 110 111 112 113 114 115 116 117 118 119 120 121 122 123 0
-9 -10 -11 12 -25 -26 -27 28 34 0
-9 10 -11 -12 -25 26 -27 -28 34 0
14 -30 -82 -118 0
33 34 35 -40 -41 0
-9 -10 -11 27 33 0
7 -21 -22 -24 -89 0
14 -30 33 35 -39 -40 -41 0
1 4 -18 -19 40 0
40 -42 0
15 -30 -31 -42 0
-15 30 31 -34 -36 -37 38 41 0
2 -17 -18 -41 0
1 -71 -107 0
2 -70 -106 0
-42 -89 -90 0
4 -17 -18 -19 37 -41 0
5 -21 -35 0
2 -17 -19 -20 37 -41 0
2 -17 -18 40 0
6 8 -21 -23 -89 0
2 3 4 -17 40 0
2 -17 -19 -20 40 0
-21 -48 -89 0
-41 -43 51 -54 89 -90 0
-21 -22 -47 -89 0
5 6 7 -23 -35 0
5 6 7 8 21 22 23 24 36 0
41 -44 -45 -51 -53 54 -90 0
-6 -7 -8 21 24 35 0
5 6 -23 -24 -89 0
14 -15 -16 30 -31 -32 33 -34 35 -36 -37 38 -39 -40 42 0
5 6 -7 8 21 22 -23 24 36 0
-35 -42 0
5 7 -22 -23 -35 0
14 15 -16 30 31 -32 33 -34 35 -36 -37 38 -39 -40 42 0
5 6 7 -24 -35 0
15 -30 -32 33 35 -39 -40 -41 0
15 16 -30 33 35 -39 -40 -41 0
14 -15 16 30 -31 32 33 -34 35 -36 -37 38 -39 -40 42 0
8 -21 -22 -23 -89 0
-5 -6 -7 -8 -21 -22 -23 -24 36 0
42 43 44 -45 -50 -51 52 89 -90 0
-41 44 -50 -54 89 -90 0
14 16 -31 -32 -42 0
3 -69 -105 0
41 43 -45 50 -53 54 -90 0
-42 -50 51 -90 0
15 -30 -31 33 35 -39 -40 -41 0
-41 44 51 53 89 -90 0
-42 -43 44 -90 0
1 2 3 -20 37 -41 0
6 8 -21 -23 -35 0
15 16 -30 -32 -42 0
-41 -43 44 -50 89 -90 0
-42 50 -51 -90 0
-38 88 90 91 92 93 94 95 96 97 98 99 100 101 102 103 104 105 106 107 108 109 110 111 112 113 114 115 116 117 118 119 120 121 122 123 0
2 3 -17 -19 -41 0
1 2 3 4 40 0
41 43 -45 -51 -53 54 -90 0
-41 -43 -50 -54 89 -90 0
2 4 -17 -19 40 0
-5 -6 -7 8 -21 -22 -23 24 36 0
41 -51 -89 -90 0
41 -44 -45 50 -53 54 -90 0
41 43 -44 -45 50 -90 0
42 -43 -44 -45 -50 -51 52 89 -90 0
1 2 -19 -20 37 -41 0
1 2 3 -20 40 0
1 -2 3 -4 17 -18 19 -20 37 0
-17 -18 -19 -20 40 0
-3 17 18 19 -40 0
-1 -17 67 -103 0
2 -18 -66 -102 0
-11 -27 73 -109 0
3 -17 -18 -19 -41 0
-25 -79 -115 0
3 -17 -18 -20 40 0
10 12 -25 -27 -33 0
-11 25 26 27 33 0
2 3 -17 -19 40 0
-1 -2 3 4 -17 -18 19 20 37 0
2 3 -17 -20 40 0
15 -85 -121 0
-9 -10 26 33 0
11 -77 -113 0
14 -30 -42 0
-41 -43 -50 53 89 -90 0
-42 45 -90 0
13 -29 38 0
-41 45 -50 89 -90 0
38 -39 83 -119 0
32 88 90 91 92 93 94 95 96 97 98 99 100 101 102 103 104 105 106 107 108 109 110 111 112 113 114 115 116 117 118 119 120 121 122 123 0
-33 -42 0
-41 45 51 89 -90 0
-9 10 11 -12 -25 26 27 -28 34 0
-41 -43 44 51 89 -90 0
1 3 4 -18 40 0
-42 43 -44 -90 0
-41 -43 51 53 89 -90 0
-41 44 -50 53 89 -90 0
-35 -37 41 0
42 -43 -44 -45 50 51 52 89 -90 0
41 43 -44 -45 -51 -90 0
-41 -50 51 -90 0
-42 -52 -90 0
-8 -55 -91 0
8 55 -91 0
-24 -56 -92 0
24 56 -92 0
-7 -57 -93 0
7 57 -93 0
-23 -58 -94 0
23 58 -94 0
-6 -59 -95 0
6 59 -95 0
-22 -60 -96 0
22 60 -96 0
-5 -61 -97 0
5 61 -97 0
-21 -62 -98 0
21 62 -98 0
-10 -63 -99 0
10 63 -99 0
-26 -64 -100 0
26 64 -100 0
1 -2 -3 4 17 -18 -19 20 37 0
-2 -18 66 -102 0
1 3 -18 -19 -41 0
1 3 -18 -19 40 0
-2 -4 17 19 20 -40 0
1 -2 3 4 17 -18 19 20 37 0
1 17 67 -103 0
-4 17 18 19 20 -40 0
1 2 3 -4 17 18 19 -20 37 0
-17 -18 -19 -20 37 -41 0
4 20 72 -108 0
-4 20 68 -104 0
-4 20 -37 0
3 19 65 -101 0
-3 19 -65 -101 0
2 18 66 -102 0
1 -18 -19 -20 40 0
4 -20 -72 -108 0
10 -78 -114 0
-11 27 -34 0
11 -25 -26 -27 -33 0
-49 -74 -110 0
49 74 -110 0
-10 25 26 33 0
-12 25 26 27 28 33 0
9 10 11 -12 25 26 27 -28 34 0
-27 -77 -113 0
12 28 80 -116 0
-12 28 76 -112 0
-12 28 -34 0
11 27 73 -109 0
-11 27 -73 -109 0
-10 -11 25 27 33 0
9 10 -11 12 25 26 -27 28 34 0
9 10 11 12 25 26 27 28 34 0
9 10 12 -27 -33 0
9 11 -26 -27 -33 0
12 -28 -80 -116 0
-12 -28 80 -116 0
-14 15 16 -30 31 -32 38 -39 -88 90 91 92 93 94 95 96 97 98 99 100 101 102 103 104 105 106 107 108 109 110 111 112 113 114 115 116 117 118 119 120 121 122 123 0
15 31 81 -117 0
-33 -36 -37 41 0
-14 -15 16 -30 -31 -32 38 -39 -88 90 91 92 93 94 95 96 97 98 99 100 101 102 103 104 105 106 107 108 109 110 111 112 113 114 115 116 117 118 119 120 121 122 123 0
14 30 82 -118 0
-9 -25 75 -111 0
-38 -42 0
-21 -22 -23 -24 -89 0
-14 30 -42 0
-32 -84 -120 0
-16 32 84 -120 0
-5 6 7 -8 -21 22 23 -24 36 0
-9 -11 -12 26 28 33 0
16 -30 -31 -32 -42 0
-15 31 -81 -117 0
14 -15 16 30 -31 -32 38 -39 -88 90 91 92 93 94 95 96 97 98 99 100 101 102 103 104 105 106 107 108 109 110 111 112 113 114 115 116 117 118 119 120 121 122 123 0
11 12 -25 -26 -33 0
-39 -87 -123 0
39 87 -123 0
1 -17 40 0
-38 -83 -119 0
14 15 16 30 31 32 33 -34 35 -36 -37 38 -39 -40 42 0
